NAME: bip_60_5
TYPE: TSP
COMMENT: bip_60_5
DIMENSION: 60
EDGE_WEIGHT_TYPE: EUC_2D
NODE_COORD_SECTION
1 99 45
2 71 11
3 8 1
4 81 35
5 92 40
6 58 20
7 60 96
8 27 1
9 38 53
10 18 83
11 26 57
12 12 61
13 39 20
14 87 14
15 83 46
16 45 87
17 24 14
18 50 87
19 1 70
20 3 59
21 64 83
22 93 40
23 1 69
24 14 6
25 37 60
26 2 80
27 53 18
28 24 66
29 5 16
30 58 94
31 444 443
32 428 425
33 497 497
34 477 444
35 453 485
36 410 492
37 474 460
38 463 409
39 407 447
40 464 406
41 441 477
42 409 447
43 459 450
44 451 493
45 483 414
46 482 465
47 424 463
48 446 482
49 414 456
50 429 475
51 466 473
52 462 410
53 412 423
54 492 455
55 413 419
56 472 451
57 482 442
58 423 484
59 494 406
60 492 435
